\ENCODING=ISO-8859-1
\Problem name: IloCplex

Minimize
 OBJ: Cap#80
Subject To
 c1:   f(1,1)#0 + f(1,2)#1  = 1
 c2:   f(2,1)#16 + f(2,2)#17  = 1
 c3:   f(3,3)#34 + f(3,9)#40  = 1
 c4:   f(4,3)#50 + f(4,9)#56  = 1
 c5:   f(5,6)#69 + f(5,7)#70 + f(5,12)#75  = 1
 c6:   f(1,4)#3 + f(1,5)#4 + f(1,11)#10  = 0
 c7:   f(2,6)#21 + f(2,7)#22 + f(2,12)#27  = 0
 c8:   f(3,10)#41 + f(3,13)#44 + f(3,15)#46 + f(3,16)#47  = 0
 c9:   f(4,8)#55 + f(4,14)#61  = 0
 c10:  f(5,10)#73 + f(5,13)#76 + f(5,15)#78 + f(5,16)#79  = 0
 c11:  f(1,3)#2 + f(1,12)#11 + f(1,13)#12  = 1
 c12:  f(2,4)#19 + f(2,14)#29 + f(2,15)#30  = 1
 c13:  f(3,2)#33 + f(3,5)#36 + f(3,7)#38 + f(3,8)#39  = 1
 c14:  f(4,6)#53 + f(4,16)#63  = 1
 c15:  f(5,2)#65 + f(5,5)#68 + f(5,7)#70 + f(5,8)#71  = 1
 c16:  f(1,1)#0 - f(1,3)#2 - f(1,9)#8 + f(1,11)#10  = 0
 c17:  f(1,4)#3 - f(1,6)#5 - f(1,7)#6 - f(1,12)#11 + f(1,14)#13 + f(1,15)#14
        = 0
 c18:  f(1,6)#5 - f(1,8)#7 - f(1,14)#13 + f(1,16)#15  = 0
 c19:  f(1,2)#1 + f(1,5)#4 + f(1,7)#6 + f(1,8)#7 - f(1,10)#9 - f(1,13)#12
       - f(1,15)#14 - f(1,16)#15  = 0
 c20:  f(2,1)#16 - f(2,3)#18 - f(2,9)#24 + f(2,11)#26  = 0
 c21:  f(2,3)#18 - f(2,4)#19 - f(2,5)#20 - f(2,11)#26 + f(2,12)#27 + f(2,13)#28
        = 0
 c22:  f(2,6)#21 - f(2,8)#23 - f(2,14)#29 + f(2,16)#31  = 0
 c23:  f(2,2)#17 + f(2,5)#20 + f(2,7)#22 + f(2,8)#23 - f(2,10)#25 - f(2,13)#28
       - f(2,15)#30 - f(2,16)#31  = 0
 c24:  - f(3,1)#32 - f(3,2)#33 + f(3,9)#40 + f(3,10)#41  = 0
 c25:  f(3,3)#34 - f(3,4)#35 - f(3,5)#36 - f(3,11)#42 + f(3,12)#43 + f(3,13)#44
        = 0
 c26:  f(3,4)#35 - f(3,6)#37 - f(3,7)#38 - f(3,12)#43 + f(3,14)#45 + f(3,15)#46
        = 0
 c27:  f(3,6)#37 - f(3,8)#39 - f(3,14)#45 + f(3,16)#47  = 0
 c28:  - f(4,1)#48 - f(4,2)#49 + f(4,9)#56 + f(4,10)#57  = 0
 c29:  f(4,3)#50 - f(4,4)#51 - f(4,5)#52 - f(4,11)#58 + f(4,12)#59 + f(4,13)#60
        = 0
 c30:  f(4,4)#51 - f(4,6)#53 - f(4,7)#54 - f(4,12)#59 + f(4,14)#61 + f(4,15)#62
        = 0
 c31:  f(4,2)#49 + f(4,5)#52 + f(4,7)#54 + f(4,8)#55 - f(4,10)#57 - f(4,13)#60
       - f(4,15)#62 - f(4,16)#63  = 0
 c32:  - f(5,1)#64 - f(5,2)#65 + f(5,9)#72 + f(5,10)#73  = 0
 c33:  f(5,1)#64 - f(5,3)#66 - f(5,9)#72 + f(5,11)#74  = 0
 c34:  f(5,3)#66 - f(5,4)#67 - f(5,5)#68 - f(5,11)#74 + f(5,12)#75 + f(5,13)#76
        = 0
 c35:  f(5,6)#69 - f(5,8)#71 - f(5,14)#77 + f(5,16)#79  = 0
 c36:  f(1,9)#8 + f(1,10)#9 <= 1
 c37:  f(1,1)#0 + f(1,11)#10 <= 1
 c38:  f(1,3)#2 + f(1,12)#11 + f(1,13)#12 <= 1
 c39:  f(1,4)#3 + f(1,14)#13 + f(1,15)#14 <= 1
 c40:  f(1,6)#5 + f(1,16)#15 <= 1
 c41:  f(1,2)#1 + f(1,5)#4 + f(1,7)#6 + f(1,8)#7 <= 1
 c42:  f(2,9)#24 + f(2,10)#25 <= 1
 c43:  f(2,1)#16 + f(2,11)#26 <= 1
 c44:  f(2,3)#18 + f(2,12)#27 + f(2,13)#28 <= 1
 c45:  f(2,4)#19 + f(2,14)#29 + f(2,15)#30 <= 1
 c46:  f(2,6)#21 + f(2,16)#31 <= 1
 c47:  f(2,2)#17 + f(2,5)#20 + f(2,7)#22 + f(2,8)#23 <= 1
 c48:  f(3,9)#40 + f(3,10)#41 <= 1
 c49:  f(3,1)#32 + f(3,11)#42 <= 1
 c50:  f(3,3)#34 + f(3,12)#43 + f(3,13)#44 <= 1
 c51:  f(3,4)#35 + f(3,14)#45 + f(3,15)#46 <= 1
 c52:  f(3,6)#37 + f(3,16)#47 <= 1
 c53:  f(3,2)#33 + f(3,5)#36 + f(3,7)#38 + f(3,8)#39 <= 1
 c54:  f(4,9)#56 + f(4,10)#57 <= 1
 c55:  f(4,1)#48 + f(4,11)#58 <= 1
 c56:  f(4,3)#50 + f(4,12)#59 + f(4,13)#60 <= 1
 c57:  f(4,4)#51 + f(4,14)#61 + f(4,15)#62 <= 1
 c58:  f(4,6)#53 + f(4,16)#63 <= 1
 c59:  f(4,2)#49 + f(4,5)#52 + f(4,7)#54 + f(4,8)#55 <= 1
 c60:  f(5,9)#72 + f(5,10)#73 <= 1
 c61:  f(5,1)#64 + f(5,11)#74 <= 1
 c62:  f(5,3)#66 + f(5,12)#75 + f(5,13)#76 <= 1
 c63:  f(5,4)#67 + f(5,14)#77 + f(5,15)#78 <= 1
 c64:  f(5,6)#69 + f(5,16)#79 <= 1
 c65:  f(5,2)#65 + f(5,5)#68 + f(5,7)#70 + f(5,8)#71 <= 1
 c66:  f(1,1)#0 + f(1,2)#1 <= 1
 c67:  f(1,3)#2 + f(1,9)#8 <= 1
 c68:  f(1,4)#3 + f(1,5)#4 + f(1,11)#10 <= 1
 c69:  f(1,6)#5 + f(1,7)#6 + f(1,12)#11 <= 1
 c70:  f(1,8)#7 + f(1,14)#13 <= 1
 c71:  f(1,10)#9 + f(1,13)#12 + f(1,15)#14 + f(1,16)#15 <= 1
 c72:  f(2,1)#16 + f(2,2)#17 <= 1
 c73:  f(2,3)#18 + f(2,9)#24 <= 1
 c74:  f(2,4)#19 + f(2,5)#20 + f(2,11)#26 <= 1
 c75:  f(2,6)#21 + f(2,7)#22 + f(2,12)#27 <= 1
 c76:  f(2,8)#23 + f(2,14)#29 <= 1
 c77:  f(2,10)#25 + f(2,13)#28 + f(2,15)#30 + f(2,16)#31 <= 1
 c78:  f(3,1)#32 + f(3,2)#33 <= 1
 c79:  f(3,3)#34 + f(3,9)#40 <= 1
 c80:  f(3,4)#35 + f(3,5)#36 + f(3,11)#42 <= 1
 c81:  f(3,6)#37 + f(3,7)#38 + f(3,12)#43 <= 1
 c82:  f(3,8)#39 + f(3,14)#45 <= 1
 c83:  f(3,10)#41 + f(3,13)#44 + f(3,15)#46 + f(3,16)#47 <= 1
 c84:  f(4,1)#48 + f(4,2)#49 <= 1
 c85:  f(4,3)#50 + f(4,9)#56 <= 1
 c86:  f(4,4)#51 + f(4,5)#52 + f(4,11)#58 <= 1
 c87:  f(4,6)#53 + f(4,7)#54 + f(4,12)#59 <= 1
 c88:  f(4,8)#55 + f(4,14)#61 <= 1
 c89:  f(4,10)#57 + f(4,13)#60 + f(4,15)#62 + f(4,16)#63 <= 1
 c90:  f(5,1)#64 + f(5,2)#65 <= 1
 c91:  f(5,3)#66 + f(5,9)#72 <= 1
 c92:  f(5,4)#67 + f(5,5)#68 + f(5,11)#74 <= 1
 c93:  f(5,6)#69 + f(5,7)#70 + f(5,12)#75 <= 1
 c94:  f(5,8)#71 + f(5,14)#77 <= 1
 c95:  f(5,10)#73 + f(5,13)#76 + f(5,15)#78 + f(5,16)#79 <= 1
 c96:  - f(1,1)#0 - f(1,2)#1 - f(1,3)#2 - f(1,4)#3 - f(1,5)#4 - f(1,6)#5
       - f(1,7)#6 - f(1,8)#7 - f(1,9)#8 - f(1,10)#9 - f(1,11)#10 - f(1,12)#11
       - f(1,13)#12 - f(1,14)#13 - f(1,15)#14 - f(1,16)#15 >= -4
 c97:  - f(2,1)#16 - f(2,2)#17 - f(2,3)#18 - f(2,4)#19 - f(2,5)#20 - f(2,6)#21
       - f(2,7)#22 - f(2,8)#23 - f(2,9)#24 - f(2,10)#25 - f(2,11)#26
       - f(2,12)#27 - f(2,13)#28 - f(2,14)#29 - f(2,15)#30 - f(2,16)#31 >= -4
 c98:  - f(3,1)#32 - f(3,2)#33 - f(3,3)#34 - f(3,4)#35 - f(3,5)#36 - f(3,6)#37
       - f(3,7)#38 - f(3,8)#39 - f(3,9)#40 - f(3,10)#41 - f(3,11)#42
       - f(3,12)#43 - f(3,13)#44 - f(3,14)#45 - f(3,15)#46 - f(3,16)#47 >= -4
 c99:  - f(4,1)#48 - f(4,2)#49 - f(4,3)#50 - f(4,4)#51 - f(4,5)#52 - f(4,6)#53
       - f(4,7)#54 - f(4,8)#55 - f(4,9)#56 - f(4,10)#57 - f(4,11)#58
       - f(4,12)#59 - f(4,13)#60 - f(4,14)#61 - f(4,15)#62 - f(4,16)#63 >= -4
 c100: - f(5,1)#64 - f(5,2)#65 - f(5,3)#66 - f(5,4)#67 - f(5,5)#68 - f(5,6)#69
       - f(5,7)#70 - f(5,8)#71 - f(5,9)#72 - f(5,10)#73 - f(5,11)#74
       - f(5,12)#75 - f(5,13)#76 - f(5,14)#77 - f(5,15)#78 - f(5,16)#79 >= -4
 c101: 2 f(1,1)#0 + 2 f(1,9)#8 + f(2,1)#16 + f(2,9)#24 + 2 f(3,1)#32
       + 2 f(3,9)#40 + f(4,1)#48 + f(4,9)#56 + 3 f(5,1)#64 + 3 f(5,9)#72
       - Cap#80 <= 0
 c102: 2 f(1,2)#1 + 2 f(1,10)#9 + f(2,2)#17 + f(2,10)#25 + 2 f(3,2)#33
       + 2 f(3,10)#41 + f(4,2)#49 + f(4,10)#57 + 3 f(5,2)#65 + 3 f(5,10)#73
       - Cap#80 <= 0
 c103: 2 f(1,3)#2 + 2 f(1,11)#10 + f(2,3)#18 + f(2,11)#26 + 2 f(3,3)#34
       + 2 f(3,11)#42 + f(4,3)#50 + f(4,11)#58 + 3 f(5,3)#66 + 3 f(5,11)#74
       - Cap#80 <= 0
 c104: 2 f(1,4)#3 + 2 f(1,12)#11 + f(2,4)#19 + f(2,12)#27 + 2 f(3,4)#35
       + 2 f(3,12)#43 + f(4,4)#51 + f(4,12)#59 + 3 f(5,4)#67 + 3 f(5,12)#75
       - Cap#80 <= 0
 c105: 2 f(1,5)#4 + 2 f(1,13)#12 + f(2,5)#20 + f(2,13)#28 + 2 f(3,5)#36
       + 2 f(3,13)#44 + f(4,5)#52 + f(4,13)#60 + 3 f(5,5)#68 + 3 f(5,13)#76
       - Cap#80 <= 0
 c106: 2 f(1,6)#5 + 2 f(1,14)#13 + f(2,6)#21 + f(2,14)#29 + 2 f(3,6)#37
       + 2 f(3,14)#45 + f(4,6)#53 + f(4,14)#61 + 3 f(5,6)#69 + 3 f(5,14)#77
       - Cap#80 <= 0
 c107: 2 f(1,7)#6 + 2 f(1,15)#14 + f(2,7)#22 + f(2,15)#30 + 2 f(3,7)#38
       + 2 f(3,15)#46 + f(4,7)#54 + f(4,15)#62 + 3 f(5,7)#70 + 3 f(5,15)#78
       - Cap#80 <= 0
 c108: 2 f(1,8)#7 + 2 f(1,16)#15 + f(2,8)#23 + f(2,16)#31 + 2 f(3,8)#39
       + 2 f(3,16)#47 + f(4,8)#55 + f(4,16)#63 + 3 f(5,8)#71 + 3 f(5,16)#79
       - Cap#80 <= 0
 c109: f(1,1)#0 + f(1,9)#8 <= 1
 c110: f(2,1)#16 + f(2,9)#24 <= 1
 c111: f(3,1)#32 + f(3,9)#40 <= 1
 c112: f(4,1)#48 + f(4,9)#56 <= 1
 c113: f(5,1)#64 + f(5,9)#72 <= 1
 c114: f(1,2)#1 + f(1,10)#9 <= 1
 c115: f(2,2)#17 + f(2,10)#25 <= 1
 c116: f(3,2)#33 + f(3,10)#41 <= 1
 c117: f(4,2)#49 + f(4,10)#57 <= 1
 c118: f(5,2)#65 + f(5,10)#73 <= 1
 c119: f(1,3)#2 + f(1,11)#10 <= 1
 c120: f(2,3)#18 + f(2,11)#26 <= 1
 c121: f(3,3)#34 + f(3,11)#42 <= 1
 c122: f(4,3)#50 + f(4,11)#58 <= 1
 c123: f(5,3)#66 + f(5,11)#74 <= 1
 c124: f(1,4)#3 + f(1,12)#11 <= 1
 c125: f(2,4)#19 + f(2,12)#27 <= 1
 c126: f(3,4)#35 + f(3,12)#43 <= 1
 c127: f(4,4)#51 + f(4,12)#59 <= 1
 c128: f(5,4)#67 + f(5,12)#75 <= 1
 c129: f(1,5)#4 + f(1,13)#12 <= 1
 c130: f(2,5)#20 + f(2,13)#28 <= 1
 c131: f(3,5)#36 + f(3,13)#44 <= 1
 c132: f(4,5)#52 + f(4,13)#60 <= 1
 c133: f(5,5)#68 + f(5,13)#76 <= 1
 c134: f(1,6)#5 + f(1,14)#13 <= 1
 c135: f(2,6)#21 + f(2,14)#29 <= 1
 c136: f(3,6)#37 + f(3,14)#45 <= 1
 c137: f(4,6)#53 + f(4,14)#61 <= 1
 c138: f(5,6)#69 + f(5,14)#77 <= 1
 c139: f(1,7)#6 + f(1,15)#14 <= 1
 c140: f(2,7)#22 + f(2,15)#30 <= 1
 c141: f(3,7)#38 + f(3,15)#46 <= 1
 c142: f(4,7)#54 + f(4,15)#62 <= 1
 c143: f(5,7)#70 + f(5,15)#78 <= 1
 c144: f(1,8)#7 + f(1,16)#15 <= 1
 c145: f(2,8)#23 + f(2,16)#31 <= 1
 c146: f(3,8)#39 + f(3,16)#47 <= 1
 c147: f(4,8)#55 + f(4,16)#63 <= 1
 c148: f(5,8)#71 + f(5,16)#79 <= 1
 c149: f(1,2)#1 + f(1,12)#11 + f(1,14)#13 + f(1,16)#15 + f(2,1)#16 + f(2,3)#18
       + f(2,4)#19 + f(3,3)#34 + f(3,5)#36 + f(4,2)#49 + f(4,9)#56 + f(4,16)#63
       + f(5,7)#70 <= 12
 c150: f(1,2)#1 + f(1,13)#12 + f(2,1)#16 + f(2,3)#18 + f(2,4)#19 + f(3,3)#34
       + f(3,4)#35 + f(3,6)#37 + f(3,8)#39 + f(4,2)#49 + f(4,9)#56 + f(4,16)#63
       + f(5,7)#70 <= 12
 c151: f(1,2)#1 + f(1,12)#11 + f(1,14)#13 + f(1,16)#15 + f(2,1)#16 + f(2,3)#18
       + f(2,4)#19 + f(3,3)#34 + f(3,5)#36 + f(4,2)#49 + f(4,9)#56 + f(4,16)#63
       + f(5,7)#70 <= 12
 c152: f(1,2)#1 + f(1,13)#12 + f(2,1)#16 + f(2,3)#18 + f(2,4)#19 + f(3,3)#34
       + f(3,4)#35 + f(3,6)#37 + f(3,8)#39 + f(4,2)#49 + f(4,9)#56 + f(4,16)#63
       + f(5,7)#70 <= 12
 c153: f(1,2)#1 + f(1,4)#3 + f(1,8)#7 + f(1,10)#9 + f(1,12)#11 + f(1,16)#15
       + f(2,1)#16 + f(2,4)#19 + f(2,9)#24 + f(2,12)#27 + f(4,1)#48 + f(4,2)#49
       + f(4,8)#55 + f(4,9)#56 + f(4,10)#57 + f(4,16)#63 <= 7
 c154: f(2,1)#16 + f(2,3)#18 + f(2,4)#19 + f(2,9)#24 + f(2,11)#26 + f(2,12)#27
       + f(3,3)#34 + f(3,4)#35 + f(3,8)#39 + f(3,11)#42 + f(3,12)#43
       + f(3,16)#47 + f(4,1)#48 + f(4,8)#55 + f(4,9)#56 + f(4,16)#63 <= 7
Bounds
 0 <= f(1,1)#0 <= 1
 0 <= f(1,2)#1 <= 1
 0 <= f(1,3)#2 <= 1
 0 <= f(1,4)#3 <= 1
 0 <= f(1,5)#4 <= 1
 0 <= f(1,6)#5 <= 1
 0 <= f(1,7)#6 <= 1
 0 <= f(1,8)#7 <= 1
 0 <= f(1,9)#8 <= 1
 0 <= f(1,10)#9 <= 1
 0 <= f(1,11)#10 <= 1
 0 <= f(1,12)#11 <= 1
 0 <= f(1,13)#12 <= 1
 0 <= f(1,14)#13 <= 1
 0 <= f(1,15)#14 <= 1
 0 <= f(1,16)#15 <= 1
 0 <= f(2,1)#16 <= 1
 0 <= f(2,2)#17 <= 1
 0 <= f(2,3)#18 <= 1
 0 <= f(2,4)#19 <= 1
 0 <= f(2,5)#20 <= 1
 0 <= f(2,6)#21 <= 1
 0 <= f(2,7)#22 <= 1
 0 <= f(2,8)#23 <= 1
 0 <= f(2,9)#24 <= 1
 0 <= f(2,10)#25 <= 1
 0 <= f(2,11)#26 <= 1
 0 <= f(2,12)#27 <= 1
 0 <= f(2,13)#28 <= 1
 0 <= f(2,14)#29 <= 1
 0 <= f(2,15)#30 <= 1
 0 <= f(2,16)#31 <= 1
 0 <= f(3,1)#32 <= 1
 0 <= f(3,2)#33 <= 1
 0 <= f(3,3)#34 <= 1
 0 <= f(3,4)#35 <= 1
 0 <= f(3,5)#36 <= 1
 0 <= f(3,6)#37 <= 1
 0 <= f(3,7)#38 <= 1
 0 <= f(3,8)#39 <= 1
 0 <= f(3,9)#40 <= 1
 0 <= f(3,10)#41 <= 1
 0 <= f(3,11)#42 <= 1
 0 <= f(3,12)#43 <= 1
 0 <= f(3,13)#44 <= 1
 0 <= f(3,14)#45 <= 1
 0 <= f(3,15)#46 <= 1
 0 <= f(3,16)#47 <= 1
 0 <= f(4,1)#48 <= 1
 0 <= f(4,2)#49 <= 1
 0 <= f(4,3)#50 <= 1
 0 <= f(4,4)#51 <= 1
 0 <= f(4,5)#52 <= 1
 0 <= f(4,6)#53 <= 1
 0 <= f(4,7)#54 <= 1
 0 <= f(4,8)#55 <= 1
 0 <= f(4,9)#56 <= 1
 0 <= f(4,10)#57 <= 1
 0 <= f(4,11)#58 <= 1
 0 <= f(4,12)#59 <= 1
 0 <= f(4,13)#60 <= 1
 0 <= f(4,14)#61 <= 1
 0 <= f(4,15)#62 <= 1
 0 <= f(4,16)#63 <= 1
 0 <= f(5,1)#64 <= 1
 0 <= f(5,2)#65 <= 1
 0 <= f(5,3)#66 <= 1
 0 <= f(5,4)#67 <= 1
 0 <= f(5,5)#68 <= 1
 0 <= f(5,6)#69 <= 1
 0 <= f(5,7)#70 <= 1
 0 <= f(5,8)#71 <= 1
 0 <= f(5,9)#72 <= 1
 0 <= f(5,10)#73 <= 1
 0 <= f(5,11)#74 <= 1
 0 <= f(5,12)#75 <= 1
 0 <= f(5,13)#76 <= 1
 0 <= f(5,14)#77 <= 1
 0 <= f(5,15)#78 <= 1
 0 <= f(5,16)#79 <= 1
      Cap#80 >= 0
Binaries
 f(1,1)#0  f(1,2)#1  f(1,3)#2  f(1,4)#3  f(1,5)#4  f(1,6)#5  f(1,7)#6 
 f(1,8)#7  f(1,9)#8  f(1,10)#9  f(1,11)#10  f(1,12)#11  f(1,13)#12  f(1,14)#13 
 f(1,15)#14  f(1,16)#15  f(2,1)#16  f(2,2)#17  f(2,3)#18  f(2,4)#19  f(2,5)#20 
 f(2,6)#21  f(2,7)#22  f(2,8)#23  f(2,9)#24  f(2,10)#25  f(2,11)#26 
 f(2,12)#27  f(2,13)#28  f(2,14)#29  f(2,15)#30  f(2,16)#31  f(3,1)#32 
 f(3,2)#33  f(3,3)#34  f(3,4)#35  f(3,5)#36  f(3,6)#37  f(3,7)#38  f(3,8)#39 
 f(3,9)#40  f(3,10)#41  f(3,11)#42  f(3,12)#43  f(3,13)#44  f(3,14)#45 
 f(3,15)#46  f(3,16)#47  f(4,1)#48  f(4,2)#49  f(4,3)#50  f(4,4)#51  f(4,5)#52 
 f(4,6)#53  f(4,7)#54  f(4,8)#55  f(4,9)#56  f(4,10)#57  f(4,11)#58 
 f(4,12)#59  f(4,13)#60  f(4,14)#61  f(4,15)#62  f(4,16)#63  f(5,1)#64 
 f(5,2)#65  f(5,3)#66  f(5,4)#67  f(5,5)#68  f(5,6)#69  f(5,7)#70  f(5,8)#71 
 f(5,9)#72  f(5,10)#73  f(5,11)#74  f(5,12)#75  f(5,13)#76  f(5,14)#77 
 f(5,15)#78  f(5,16)#79 
Generals
 Cap#80 
End
